30 1 4
238 941 374 993 80 96 125 225 291 667 886 746 657 726 196 899 195 88 433 723 292 80 862 95 877 826 377 252 797 471 
314 34 412 687 26 491 783 150 715 73 817 601 819 473 326 14 371 521 101 804 244 393 884 105 487 761 930 864 12 726 
335 326 760 746 13 785 237 795 935 952 868 752 552 686 224 878 700 595 398 801 399 641 193 283 745 680 44 675 544 56 
401 878 381 160 624 394 945 860 189 879 812 56 630 363 742 854 240 441 449 638 242 848 278 435 130 23 114 173 697 657 
2280 980 5350 6090 2570 1580 30 2010 180 1910 800 8290 2470 7090 1910 9880 5630 4310 4290 110 690 6710 8590 3460 1050 9880 3680 2190 1610 650 
53130
